NAME: cuum860.tsp
TYPE: TSP
COMMENT: User-generated TSP file
DIMENSION: 860
EDGE_WEIGHT_TYPE: EUC_2D
NODE_COORD_SECTION
1 254.0 856.0
2 242.0 291.0
3 684.0 402.0
4 603.0 771.0
5 502.0 246.0
6 413.0 490.0
7 187.0 858.0
8 462.0 539.0
9 445.0 410.0
10 186.0 41.0
11 579.0 441.0
12 855.0 355.0
13 266.0 484.0
14 300.0 390.0
15 427.0 617.0
16 614.0 561.0
17 289.0 798.0
18 581.0 309.0
19 445.0 433.0
20 509.0 80.0
21 417.0 29.0
22 397.0 372.0
23 717.0 814.0
24 772.0 310.0
25 93.0 142.0
26 394.0 602.0
27 175.0 658.0
28 513.0 78.0
29 551.0 640.0
30 833.0 389.0
31 4.0 334.0
32 690.0 834.0
33 347.0 437.0
34 12.0 381.0
35 846.0 77.0
36 840.0 857.0
37 249.0 118.0
38 734.0 791.0
39 559.0 6.0
40 113.0 164.0
41 9.0 447.0
42 148.0 44.0
43 103.0 829.0
44 187.0 696.0
45 554.0 319.0
46 216.0 15.0
47 211.0 387.0
48 249.0 82.0
49 173.0 534.0
50 688.0 220.0
51 377.0 299.0
52 823.0 476.0
53 389.0 110.0
54 13.0 458.0
55 640.0 325.0
56 10.0 67.0
57 189.0 455.0
58 490.0 159.0
59 404.0 810.0
60 282.0 141.0
61 504.0 161.0
62 114.0 796.0
63 224.0 720.0
64 566.0 731.0
65 197.0 131.0
66 224.0 107.0
67 795.0 632.0
68 388.0 113.0
69 61.0 111.0
70 292.0 539.0
71 361.0 588.0
72 428.0 569.0
73 768.0 467.0
74 72.0 278.0
75 513.0 331.0
76 651.0 92.0
77 131.0 617.0
78 640.0 661.0
79 819.0 109.0
80 784.0 617.0
81 214.0 347.0
82 375.0 814.0
83 75.0 354.0
84 79.0 74.0
85 295.0 613.0
86 485.0 614.0
87 716.0 184.0
88 268.0 350.0
89 296.0 835.0
90 598.0 193.0
91 750.0 486.0
92 314.0 25.0
93 453.0 615.0
94 629.0 791.0
95 681.0 670.0
96 16.0 137.0
97 577.0 554.0
98 287.0 361.0
99 89.0 519.0
100 794.0 65.0
101 200.0 110.0
102 123.0 690.0
103 611.0 833.0
104 656.0 558.0
105 398.0 745.0
106 175.0 335.0
107 404.0 553.0
108 701.0 814.0
109 80.0 404.0
110 614.0 669.0
111 482.0 742.0
112 33.0 389.0
113 68.0 446.0
114 89.0 796.0
115 636.0 257.0
116 794.0 276.0
117 390.0 418.0
118 541.0 430.0
119 180.0 127.0
120 856.0 790.0
121 29.0 854.0
122 794.0 148.0
123 232.0 665.0
124 535.0 658.0
125 2.0 462.0
126 831.0 401.0
127 748.0 769.0
128 758.0 181.0
129 266.0 622.0
130 192.0 555.0
131 438.0 339.0
132 180.0 638.0
133 225.0 305.0
134 724.0 787.0
135 766.0 257.0
136 247.0 186.0
137 234.0 284.0
138 416.0 332.0
139 750.0 47.0
140 265.0 754.0
141 816.0 235.0
142 613.0 229.0
143 685.0 711.0
144 853.0 218.0
145 511.0 623.0
146 821.0 568.0
147 782.0 480.0
148 331.0 739.0
149 853.0 777.0
150 462.0 697.0
151 406.0 492.0
152 547.0 327.0
153 417.0 847.0
154 771.0 475.0
155 101.0 414.0
156 698.0 716.0
157 597.0 361.0
158 295.0 360.0
159 828.0 404.0
160 44.0 612.0
161 248.0 66.0
162 609.0 434.0
163 576.0 87.0
164 207.0 479.0
165 241.0 397.0
166 702.0 464.0
167 228.0 673.0
168 697.0 602.0
169 753.0 519.0
170 452.0 300.0
171 174.0 806.0
172 216.0 311.0
173 398.0 763.0
174 399.0 549.0
175 448.0 127.0
176 458.0 195.0
177 446.0 648.0
178 768.0 828.0
179 464.0 37.0
180 347.0 240.0
181 377.0 383.0
182 860.0 383.0
183 430.0 24.0
184 227.0 323.0
185 644.0 854.0
186 427.0 528.0
187 11.0 237.0
188 301.0 823.0
189 172.0 567.0
190 757.0 824.0
191 855.0 663.0
192 466.0 327.0
193 260.0 476.0
194 439.0 77.0
195 503.0 683.0
196 27.0 324.0
197 392.0 833.0
198 244.0 363.0
199 186.0 318.0
200 775.0 154.0
201 399.0 842.0
202 394.0 645.0
203 588.0 214.0
204 176.0 159.0
205 640.0 831.0
206 351.0 417.0
207 823.0 3.0
208 615.0 683.0
209 173.0 722.0
210 827.0 313.0
211 142.0 852.0
212 658.0 19.0
213 34.0 649.0
214 9.0 118.0
215 241.0 423.0
216 829.0 127.0
217 606.0 10.0
218 196.0 22.0
219 776.0 332.0
220 547.0 354.0
221 72.0 242.0
222 579.0 376.0
223 680.0 635.0
224 705.0 859.0
225 222.0 11.0
226 15.0 284.0
227 324.0 857.0
228 210.0 368.0
229 477.0 520.0
230 541.0 255.0
231 478.0 22.0
232 699.0 173.0
233 436.0 400.0
234 520.0 166.0
235 664.0 832.0
236 167.0 509.0
237 712.0 737.0
238 704.0 724.0
239 359.0 559.0
240 723.0 216.0
241 442.0 839.0
242 356.0 789.0
243 821.0 399.0
244 393.0 582.0
245 105.0 214.0
246 457.0 683.0
247 249.0 70.0
248 316.0 679.0
249 359.0 191.0
250 616.0 212.0
251 518.0 50.0
252 478.0 723.0
253 39.0 767.0
254 744.0 807.0
255 736.0 543.0
256 636.0 694.0
257 686.0 218.0
258 130.0 306.0
259 713.0 655.0
260 478.0 839.0
261 474.0 577.0
262 540.0 522.0
263 835.0 429.0
264 741.0 315.0
265 454.0 144.0
266 784.0 377.0
267 319.0 684.0
268 44.0 545.0
269 714.0 811.0
270 134.0 252.0
271 146.0 660.0
272 48.0 209.0
273 727.0 256.0
274 517.0 250.0
275 820.0 772.0
276 669.0 852.0
277 126.0 8.0
278 40.0 280.0
279 641.0 792.0
280 105.0 389.0
281 542.0 231.0
282 773.0 735.0
283 426.0 688.0
284 643.0 208.0
285 657.0 197.0
286 124.0 451.0
287 829.0 744.0
288 240.0 308.0
289 779.0 559.0
290 52.0 839.0
291 311.0 685.0
292 815.0 745.0
293 55.0 399.0
294 61.0 120.0
295 646.0 774.0
296 649.0 430.0
297 557.0 734.0
298 182.0 471.0
299 786.0 288.0
300 29.0 467.0
301 778.0 335.0
302 766.0 855.0
303 371.0 614.0
304 453.0 664.0
305 407.0 227.0
306 529.0 230.0
307 455.0 57.0
308 69.0 184.0
309 212.0 648.0
310 4.0 841.0
311 658.0 62.0
312 753.0 639.0
313 206.0 480.0
314 110.0 373.0
315 705.0 34.0
316 68.0 242.0
317 338.0 31.0
318 455.0 87.0
319 411.0 553.0
320 263.0 623.0
321 796.0 239.0
322 93.0 567.0
323 381.0 91.0
324 432.0 382.0
325 411.0 129.0
326 521.0 485.0
327 59.0 846.0
328 304.0 606.0
329 702.0 189.0
330 394.0 551.0
331 56.0 114.0
332 386.0 447.0
333 753.0 456.0
334 416.0 391.0
335 113.0 834.0
336 757.0 143.0
337 258.0 307.0
338 516.0 741.0
339 774.0 241.0
340 247.0 698.0
341 57.0 153.0
342 686.0 843.0
343 528.0 94.0
344 656.0 92.0
345 441.0 221.0
346 654.0 28.0
347 619.0 235.0
348 818.0 712.0
349 806.0 573.0
350 366.0 249.0
351 348.0 498.0
352 533.0 441.0
353 255.0 193.0
354 227.0 224.0
355 300.0 21.0
356 673.0 538.0
357 268.0 593.0
358 783.0 435.0
359 420.0 830.0
360 483.0 182.0
361 516.0 332.0
362 147.0 758.0
363 406.0 21.0
364 297.0 244.0
365 497.0 106.0
366 597.0 48.0
367 426.0 130.0
368 77.0 632.0
369 363.0 110.0
370 120.0 765.0
371 236.0 718.0
372 709.0 679.0
373 126.0 635.0
374 812.0 724.0
375 530.0 582.0
376 545.0 150.0
377 339.0 671.0
378 39.0 790.0
379 758.0 14.0
380 788.0 709.0
381 45.0 101.0
382 713.0 351.0
383 798.0 2.0
384 615.0 287.0
385 560.0 569.0
386 406.0 476.0
387 28.0 328.0
388 737.0 840.0
389 723.0 316.0
390 413.0 332.0
391 600.0 426.0
392 660.0 18.0
393 730.0 713.0
394 317.0 637.0
395 321.0 32.0
396 264.0 180.0
397 392.0 684.0
398 846.0 824.0
399 392.0 351.0
400 41.0 803.0
401 415.0 182.0
402 144.0 421.0
403 42.0 422.0
404 31.0 739.0
405 720.0 77.0
406 419.0 713.0
407 270.0 405.0
408 372.0 376.0
409 430.0 155.0
410 489.0 77.0
411 161.0 642.0
412 173.0 810.0
413 535.0 98.0
414 424.0 576.0
415 431.0 544.0
416 701.0 571.0
417 165.0 483.0
418 184.0 687.0
419 205.0 364.0
420 278.0 340.0
421 275.0 42.0
422 198.0 144.0
423 209.0 562.0
424 523.0 539.0
425 50.0 187.0
426 829.0 253.0
427 579.0 623.0
428 233.0 50.0
429 740.0 745.0
430 338.0 140.0
431 518.0 775.0
432 53.0 456.0
433 93.0 25.0
434 503.0 101.0
435 697.0 462.0
436 133.0 268.0
437 706.0 299.0
438 349.0 749.0
439 495.0 379.0
440 369.0 777.0
441 486.0 119.0
442 706.0 403.0
443 716.0 608.0
444 651.0 651.0
445 257.0 456.0
446 546.0 555.0
447 649.0 316.0
448 49.0 68.0
449 685.0 274.0
450 417.0 480.0
451 292.0 680.0
452 284.0 778.0
453 65.0 299.0
454 423.0 469.0
455 761.0 740.0
456 297.0 240.0
457 568.0 755.0
458 745.0 744.0
459 175.0 266.0
460 805.0 245.0
461 722.0 835.0
462 229.0 585.0
463 403.0 764.0
464 414.0 211.0
465 585.0 193.0
466 18.0 845.0
467 138.0 370.0
468 152.0 40.0
469 573.0 480.0
470 203.0 220.0
471 654.0 291.0
472 626.0 51.0
473 639.0 141.0
474 557.0 301.0
475 325.0 143.0
476 844.0 120.0
477 624.0 637.0
478 541.0 171.0
479 603.0 469.0
480 521.0 320.0
481 252.0 3.0
482 388.0 242.0
483 91.0 833.0
484 35.0 776.0
485 77.0 710.0
486 37.0 563.0
487 165.0 576.0
488 635.0 853.0
489 342.0 461.0
490 11.0 317.0
491 828.0 55.0
492 57.0 488.0
493 477.0 624.0
494 762.0 609.0
495 735.0 560.0
496 624.0 349.0
497 729.0 486.0
498 648.0 251.0
499 788.0 247.0
500 510.0 500.0
501 592.0 811.0
502 842.0 395.0
503 268.0 321.0
504 692.0 685.0
505 36.0 810.0
506 708.0 539.0
507 539.0 230.0
508 732.0 326.0
509 94.0 312.0
510 17.0 441.0
511 837.0 153.0
512 414.0 406.0
513 100.0 314.0
514 791.0 343.0
515 390.0 774.0
516 476.0 682.0
517 13.0 785.0
518 634.0 362.0
519 32.0 15.0
520 847.0 759.0
521 578.0 752.0
522 759.0 539.0
523 760.0 346.0
524 513.0 349.0
525 637.0 363.0
526 609.0 807.0
527 233.0 61.0
528 26.0 659.0
529 771.0 753.0
530 532.0 301.0
531 436.0 221.0
532 656.0 130.0
533 39.0 14.0
534 493.0 424.0
535 835.0 112.0
536 589.0 807.0
537 452.0 787.0
538 745.0 657.0
539 634.0 280.0
540 452.0 821.0
541 488.0 683.0
542 338.0 516.0
543 393.0 28.0
544 609.0 5.0
545 432.0 296.0
546 317.0 392.0
547 365.0 410.0
548 332.0 517.0
549 320.0 778.0
550 365.0 491.0
551 724.0 416.0
552 801.0 666.0
553 433.0 473.0
554 311.0 527.0
555 431.0 853.0
556 702.0 440.0
557 80.0 488.0
558 199.0 274.0
559 2.0 593.0
560 411.0 497.0
561 226.0 318.0
562 384.0 689.0
563 151.0 364.0
564 617.0 738.0
565 354.0 554.0
566 61.0 34.0
567 389.0 189.0
568 31.0 95.0
569 520.0 821.0
570 338.0 160.0
571 640.0 743.0
572 816.0 234.0
573 443.0 52.0
574 12.0 494.0
575 488.0 229.0
576 647.0 470.0
577 801.0 55.0
578 53.0 855.0
579 504.0 89.0
580 690.0 16.0
581 591.0 657.0
582 414.0 249.0
583 768.0 230.0
584 842.0 848.0
585 505.0 698.0
586 691.0 143.0
587 703.0 693.0
588 822.0 3.0
589 178.0 543.0
590 159.0 531.0
591 799.0 644.0
592 54.0 551.0
593 538.0 184.0
594 44.0 780.0
595 287.0 634.0
596 402.0 459.0
597 447.0 788.0
598 100.0 698.0
599 264.0 664.0
600 477.0 537.0
601 617.0 510.0
602 190.0 198.0
603 617.0 352.0
604 243.0 203.0
605 174.0 688.0
606 800.0 606.0
607 770.0 389.0
608 81.0 271.0
609 523.0 557.0
610 838.0 317.0
611 605.0 622.0
612 287.0 231.0
613 214.0 443.0
614 178.0 475.0
615 375.0 811.0
616 742.0 692.0
617 719.0 230.0
618 3.0 216.0
619 581.0 19.0
620 170.0 745.0
621 724.0 758.0
622 479.0 824.0
623 639.0 642.0
624 461.0 163.0
625 252.0 590.0
626 74.0 504.0
627 697.0 355.0
628 720.0 109.0
629 281.0 304.0
630 290.0 837.0
631 604.0 337.0
632 158.0 224.0
633 259.0 211.0
634 141.0 772.0
635 269.0 191.0
636 294.0 348.0
637 627.0 668.0
638 624.0 696.0
639 753.0 358.0
640 571.0 279.0
641 519.0 782.0
642 375.0 788.0
643 546.0 530.0
644 618.0 539.0
645 834.0 249.0
646 127.0 401.0
647 268.0 690.0
648 587.0 25.0
649 284.0 513.0
650 708.0 204.0
651 510.0 225.0
652 689.0 566.0
653 390.0 484.0
654 618.0 555.0
655 352.0 738.0
656 208.0 695.0
657 15.0 79.0
658 56.0 332.0
659 218.0 674.0
660 103.0 666.0
661 479.0 518.0
662 681.0 430.0
663 429.0 838.0
664 429.0 544.0
665 218.0 762.0
666 543.0 595.0
667 161.0 175.0
668 138.0 703.0
669 306.0 784.0
670 752.0 197.0
671 411.0 583.0
672 806.0 184.0
673 626.0 694.0
674 661.0 146.0
675 309.0 287.0
676 667.0 335.0
677 92.0 12.0
678 747.0 365.0
679 257.0 402.0
680 502.0 152.0
681 253.0 338.0
682 4.0 30.0
683 215.0 479.0
684 396.0 676.0
685 397.0 271.0
686 815.0 5.0
687 460.0 702.0
688 256.0 149.0
689 90.0 432.0
690 763.0 666.0
691 564.0 61.0
692 166.0 569.0
693 607.0 543.0
694 777.0 111.0
695 218.0 346.0
696 443.0 491.0
697 758.0 151.0
698 457.0 279.0
699 518.0 306.0
700 482.0 420.0
701 91.0 572.0
702 233.0 848.0
703 407.0 582.0
704 515.0 316.0
705 431.0 364.0
706 215.0 591.0
707 812.0 301.0
708 138.0 785.0
709 310.0 850.0
710 526.0 568.0
711 650.0 700.0
712 283.0 808.0
713 231.0 343.0
714 718.0 674.0
715 480.0 570.0
716 676.0 267.0
717 513.0 9.0
718 339.0 341.0
719 255.0 845.0
720 138.0 382.0
721 276.0 441.0
722 338.0 378.0
723 124.0 148.0
724 125.0 395.0
725 200.0 115.0
726 46.0 623.0
727 511.0 825.0
728 21.0 444.0
729 148.0 330.0
730 260.0 678.0
731 261.0 678.0
732 632.0 295.0
733 554.0 285.0
734 394.0 617.0
735 575.0 514.0
736 713.0 327.0
737 325.0 825.0
738 704.0 724.0
739 331.0 812.0
740 488.0 692.0
741 845.0 588.0
742 741.0 589.0
743 608.0 667.0
744 849.0 121.0
745 459.0 227.0
746 154.0 466.0
747 745.0 857.0
748 13.0 350.0
749 743.0 530.0
750 78.0 165.0
751 98.0 598.0
752 50.0 577.0
753 477.0 757.0
754 132.0 183.0
755 419.0 526.0
756 368.0 825.0
757 698.0 228.0
758 518.0 300.0
759 639.0 200.0
760 54.0 143.0
761 796.0 684.0
762 771.0 706.0
763 724.0 857.0
764 114.0 119.0
765 824.0 444.0
766 306.0 757.0
767 698.0 452.0
768 54.0 79.0
769 297.0 354.0
770 81.0 124.0
771 612.0 41.0
772 380.0 478.0
773 518.0 605.0
774 606.0 400.0
775 381.0 627.0
776 538.0 481.0
777 186.0 387.0
778 523.0 860.0
779 481.0 821.0
780 763.0 666.0
781 684.0 449.0
782 609.0 232.0
783 237.0 151.0
784 372.0 481.0
785 50.0 701.0
786 104.0 391.0
787 849.0 719.0
788 451.0 542.0
789 228.0 103.0
790 358.0 230.0
791 249.0 758.0
792 119.0 744.0
793 683.0 794.0
794 432.0 374.0
795 772.0 199.0
796 778.0 470.0
797 835.0 526.0
798 540.0 694.0
799 83.0 592.0
800 444.0 414.0
801 420.0 457.0
802 420.0 204.0
803 493.0 497.0
804 641.0 356.0
805 660.0 336.0
806 568.0 329.0
807 604.0 343.0
808 126.0 730.0
809 412.0 284.0
810 383.0 713.0
811 374.0 145.0
812 519.0 29.0
813 368.0 828.0
814 503.0 593.0
815 390.0 38.0
816 462.0 118.0
817 386.0 210.0
818 304.0 48.0
819 609.0 830.0
820 655.0 798.0
821 565.0 520.0
822 296.0 282.0
823 325.0 542.0
824 667.0 744.0
825 412.0 837.0
826 704.0 517.0
827 535.0 721.0
828 330.0 384.0
829 714.0 736.0
830 349.0 337.0
831 788.0 722.0
832 167.0 304.0
833 835.0 541.0
834 464.0 820.0
835 663.0 840.0
836 84.0 6.0
837 621.0 33.0
838 824.0 356.0
839 141.0 636.0
840 407.0 785.0
841 459.0 610.0
842 432.0 287.0
843 100.0 672.0
844 418.0 539.0
845 97.0 610.0
846 242.0 844.0
847 728.0 459.0
848 576.0 302.0
849 308.0 416.0
850 543.0 654.0
851 75.0 200.0
852 786.0 702.0
853 24.0 280.0
854 257.0 573.0
855 378.0 413.0
856 253.0 449.0
857 228.0 347.0
858 371.0 836.0
859 812.0 724.0
860 364.0 196.0
EOF





